decision_x1=[0,4];
decision_x2=[0,4];
decision_x3=[0,4];
decision_x4=[0,4];
decision_x5=[0,4];
decision_x6=[0,4];
random_y1=[0,4];
random_y2=[0,4];
random_y3=[0,4];
constraint_x2_x1=[
0,1,6.9|
0,2,9.3|
0,3,9.4|
0,4,4.6|
1,0,0.2|
1,2,2.8|
1,3,9.8|
1,4,5.6|
2,0,8.1|
2,1,2.5|
2,3,3.5|
2,4,1.6|
3,0,4.2|
3,1,4.7|
3,2,7.8|
3,4,5.7|
4,0,8.5|
4,1,3.4|
4,2,7.5|
4,3,0.9|
];
constraint_x3_x2=[
0,1,3|
0,2,9.9|
0,3,6.5|
0,4,5.2|
1,0,1.5|
1,2,2.1|
1,3,3.9|
1,4,7.7|
2,0,2.1|
2,1,3.8|
2,3,2.6|
2,4,2|
3,0,8.1|
3,1,5.9|
3,2,5|
3,4,9|
4,0,1.5|
4,1,0.15|
4,2,9.5|
4,3,5|
];
constraint_x4_x2=[
0,1,8.6|
0,2,6|
0,3,8.2|
0,4,2.3|
1,0,9.2|
1,2,3|
1,3,2|
1,4,7.7|
2,0,6.1|
2,1,5.4|
2,3,5.5|
2,4,9.2|
3,0,1.2|
3,1,0.21|
3,2,3.1|
3,4,9|
4,0,0.46|
4,1,0.55|
4,2,6.3|
4,3,5|
];
constraint_x5_x1=[
0,1,6.4|
0,2,5.1|
0,3,6.3|
0,4,5.9|
1,0,6.6|
1,2,1.5|
1,3,8.8|
1,4,3.4|
2,0,1.3|
2,1,7.2|
2,3,4.2|
2,4,2.3|
3,0,6.8|
3,1,6.2|
3,2,0.2|
3,4,3.9|
4,0,9.2|
4,1,9.1|
4,2,1.7|
4,3,8.5|
];
constraint_x5_x3=[
0,1,4.7|
0,2,6.8|
0,3,5.7|
0,4,3.2|
1,0,7.4|
1,2,8.5|
1,3,9|
1,4,3.9|
2,0,4.5|
2,1,5.4|
2,3,4.6|
2,4,3.7|
3,0,1.2|
3,1,5|
3,2,4.6|
3,4,3.3|
4,0,6.8|
4,1,2.7|
4,2,2.4|
4,3,8|
];
constraint_x6_x1=[
0,1,0.13|
0,2,0.45|
0,3,6.1|
0,4,8.6|
1,0,0.42|
1,2,3.6|
1,3,6.5|
1,4,7.3|
2,0,1.7|
2,1,7.7|
2,3,3.6|
2,4,6.8|
3,0,4.9|
3,1,3.6|
3,2,0.13|
3,4,8.5|
4,0,1.1|
4,1,0.28|
4,2,5|
4,3,6.8|
];
constraint_x6_x2=[
0,1,5.2|
0,2,3.3|
0,3,8.1|
0,4,4|
1,0,5.5|
1,2,5.8|
1,3,3.3|
1,4,1|
2,0,4.5|
2,1,9.8|
2,3,3.8|
2,4,2.7|
3,0,5|
3,1,9.6|
3,2,2.1|
3,4,7.7|
4,0,0.57|
4,1,1.7|
4,2,7.7|
4,3,5.1|
];
constraint_x6_x3=[
0,1,0.61|
0,2,9.4|
0,3,8.2|
0,4,3.2|
1,0,2.2|
1,2,5.1|
1,3,2.2|
1,4,0.96|
2,0,6.4|
2,1,4.4|
2,3,9.1|
2,4,2.5|
3,0,2.6|
3,1,2.9|
3,2,2.8|
3,4,1.5|
4,0,5.9|
4,1,1.2|
4,2,5.3|
4,3,8.4|
];
constraint_x1_y1=[
0,0,3.9|
0,1,0.02|
0,2,0.18|
0,3,6.8|
0,4,1.9|
1,0,3.8|
1,1,8|
1,2,8.6|
1,3,6.9|
1,4,0.94|
2,0,2.5|
2,1,6.8|
2,2,5|
2,3,8|
2,4,1.3|
3,0,8.5|
3,1,5.6|
3,2,3.7|
3,3,8.2|
3,4,4.4|
4,0,4.9|
4,1,0.025|
4,2,4.9|
4,3,6.4|
4,4,9.9|
];
constraint_x2_y2=[
0,0,9.5|
0,1,6.2|
0,2,6.4|
0,3,2.5|
0,4,6.8|
1,0,1.8|
1,1,3.1|
1,2,8.9|
1,3,9.7|
1,4,4.4|
2,0,4.1|
2,1,0.38|
2,2,9.9|
2,3,8.8|
2,4,4.2|
3,0,4.5|
3,1,3.6|
3,2,5.6|
3,3,8.2|
3,4,5.9|
4,0,0.35|
4,1,0.34|
4,2,3.1|
4,3,1.5|
4,4,5.7|
];
constraint_x3_y3=[
0,0,2|
0,1,8.4|
0,2,2.3|
0,3,9.1|
0,4,0.38|
1,0,1.7|
1,1,5.3|
1,2,5.1|
1,3,6.1|
1,4,6.2|
2,0,1.3|
2,1,7.2|
2,2,3|
2,3,0.98|
2,4,8.9|
3,0,6|
3,1,7.1|
3,2,7|
3,3,7|
3,4,8.2|
4,0,7.8|
4,1,4.9|
4,2,7|
4,3,4.6|
4,4,0.86|
];
initial_distribution_y1=[0.011,0.36,0.32,0.016,0.3];
initial_distribution_y2=[0.087,0.1,0.27,0.24,0.3];
initial_distribution_y3=[0.31,0.29,0.17,0.093,0.13];
transition_y1=[
0.26,0.23,0.24,0.14,0.12|
0.13,0.34,0.21,0.24,0.079|
0.33,0.23,0.16,0.24,0.038|
0.14,0.35,0.18,0.32,0.017|
0.16,0.14,0.096,0.5,0.095|
];
transition_y2=[
0.62,0.087,0.12,0.067,0.11|
0.065,0.15,0.23,0.28,0.27|
0.3,0.23,0.31,0.049,0.11|
0.12,0.36,0.082,0.064,0.37|
0.17,0.22,0.17,0.22,0.22|
];
transition_y3=[
0.38,0.31,0.052,0.039,0.22|
0.032,0.31,0.31,0.026,0.32|
0.067,0.16,0.25,0.2,0.32|
0.23,0.071,0.3,0.17,0.22|
0.29,0.39,0.058,0.034,0.23|
];
